
<<< setup


<<< generate

Version identifier: 22.1.1.0 | 2022-11-28 | 9160aff4d
CPXPARAM_TimeLimit                               1800
Found incumbent of value 0.000000 after 0.00 sec. (0.00 ticks)
Tried aggregator 1 time.
MIP Presolve eliminated 10 rows and 0 columns.
Reduced MIP has 51 rows, 55 columns, and 185 nonzeros.
Reduced MIP has 45 binaries, 10 generals, 0 SOSs, and 0 indicators.
Presolve time = 0.00 sec. (0.08 ticks)
Probing time = 0.00 sec. (0.02 ticks)
Tried aggregator 1 time.
Detecting symmetries...
Reduced MIP has 51 rows, 55 columns, and 185 nonzeros.
Reduced MIP has 45 binaries, 10 generals, 0 SOSs, and 0 indicators.
Presolve time = 0.00 sec. (0.11 ticks)
Probing time = 0.00 sec. (0.02 ticks)
Clique table members: 20.
MIP emphasis: balance optimality and feasibility.
MIP search method: dynamic search.
Parallel mode: deterministic, using up to 8 threads.
Root relaxation solution time = 0.00 sec. (0.06 ticks)

        Nodes                                         Cuts/
   Node  Left     Objective  IInf  Best Integer    Best Bound    ItCnt     Gap

*     0+    0                            0.0000       13.0000              --- 
*     0+    0                            4.0000       13.0000           225.00%
      0     0        8.0000     6        4.0000        8.0000        7  100.00%
      0     0        8.0000     6        4.0000       Cuts: 8       16  100.00%
      0     0        8.0000     2        4.0000       Cuts: 9       24  100.00%
*     0+    0                            8.0000        8.0000             0.00%
      0     0        cutoff              8.0000        8.0000       24    0.00%
Elapsed time = 0.00 sec. (0.95 ticks, tree = 0.01 MB, solutions = 3)

Implied bound cuts applied:  7
Mixed integer rounding cuts applied:  2
Zero-half cuts applied:  2
Gomory fractional cuts applied:  4

Root node processing (before b&c):
  Real time             =    0.00 sec. (0.95 ticks)
Parallel b&c, 8 threads:
  Real time             =    0.00 sec. (0.00 ticks)
  Sync time (average)   =    0.00 sec.
  Wait time (average)   =    0.00 sec.
                          ------------
Total (root+branch&cut) =    0.00 sec. (0.95 ticks)

<<< solve


OBJECTIVE: 8

<<< post process


<<< done

